\ written by JAOS 0.5.0
Minimize
 COST: 0 C1 + 0 C2 + 0 C3 + 0 C4 + 0 C5 + 0 C6 + 0 C7 + 0 C8 + 0 C9
Subject To
 R1: 1 C1 + 3 C2 - 2 C3 + 3 C4 + 0.25 C5 + 1 C7 - 2 C8 = 1.78125
 R2: -3 C2 - 1 C3 - 2 C4 + 1 C5 - 1 C6 - 3 C7 - 1 C8 - 2 C9 = -4.25
 R3: 0.125 C1 - 1 C2 - 1 C3 - 1 C5 - 3 C6 + 1 C8 - 3 C9 = -10.390625
 R4: -1 C1 - 3 C2 + 3 C3 - 1 C4 - 3 C5 + 2 C6 - 1 C8 = 4.25
 R5: 0.5 C1 + 3 C2 - 3 C3 - 2 C4 + 2 C6 - 1 C7 + 1 C8 - 1 C9 = -11.9375
 R6: -2 C1 - 2 C4 - 2 C6 + 0.25 C7 - 3 C8 - 1 C9 = 8.09375
 R7: 3 C1 - 0.25 C2 - 1 C3 + 3 C4 + 1 C5 + 3 C6 - 1 C8 + 3 C9 = 2.1875
 R8: -2 C1 + 2 C2 + 0.125 C3 - 2 C4 + 1 C5 + 2 C6 + 2 C7 + 0.125 C8 - 0.125 C9
    = -4.96875
Bounds
 C1 free
 C2 free
 -1000000 <= C3 <= 1000000
 C4 free
 C5 free
 -1000000 <= C6 <= 1000000
 C7 free
 C8 free
 C9 free
General
 C3
 C6
End
