\ written by JAOS 0.5.0
Minimize
 COST: 0 C1 + 0 C2 + 0 C3 + 0 C4 + 0 C5 + 0 C6 + 0 C7 + 0 C8 + 0 C9 + 0 C10
   
Subject To
 R1: -2 C1 - 1 C2 - 1 C3 + 2 C4 + 2 C6 + 0.5 C7 + 1 C8 + 2 C9 + 1 C10 = 6.375
 R2: 2 C2 - 3 C4 - 3 C5 + 3 C7 + 1 C10 = -17.75
 R3: 3 C2 - 0.5 C3 - 0.25 C4 + 2 C5 + 3 C7 - 1 C8 + 1 C9 + 1.5 C10 = -6.78125
 R4: 2 C1 - 1 C2 + 1 C3 - 2 C4 + 3 C5 - 0.5 C6 - 1 C7 - 1 C8 - 2 C9 = 13.75
 R5: -1 C1 + 1 C2 - 1 C3 + 1 C4 - 2 C6 - 2 C7 + 2 C8 - 2 C9 - 0.25 C10 = -15.5
 R6: 3 C1 - 3 C2 + 1 C3 + 0.5 C4 - 3 C5 - 1 C6 + 2 C7 + 3 C8 - 3 C9 + 1 C10
    = -23.0625
 R7: 1 C1 - 2 C2 - 0.375 C3 + 1 C4 + 1.5 C5 - 1 C6 - 2 C7 + 2 C8 - 3 C9 + 1 C10
    = -0.578125
 R8: -2 C1 - 3 C2 - 3 C3 - 1 C4 + 3 C5 - 3 C6 - 3 C7 + 3 C8 - 3 C9 + 1 C10
    = -12.125
Bounds
 C1 free
 C2 free
 C3 free
 C4 free
 C5 free
 -1000000 <= C6 <= 1000000
 C7 free
 -1000000 <= C8 <= 1000000
 C9 free
 -1000000 <= C10 <= 1000000
General
 C6
 C8
 C10
End
